solution status: optimal solution found
objective value:                                    1
$_99_y                                            -24 	(obj:0)
$_99_z                                            -22 	(obj:0)
$_67_y                                            -24 	(obj:0)
$_67_z                                            -23 	(obj:0)
$_68_y                                            -25 	(obj:0)
$_68_z                                            -22 	(obj:0)
$_91_y                                            -25 	(obj:0)
$_91_z                                            -24 	(obj:0)
$_85_y                                            -25 	(obj:0)
$_85_z                                            -21 	(obj:0)
$_103_y                                           -24 	(obj:0)
$_103_z                                           -24 	(obj:0)
$_61_y                                            -24 	(obj:0)
$_61_z                                            -25 	(obj:0)
$_60_y                                            -25 	(obj:0)
$_60_z                                            -25 	(obj:0)
$_83_y                                            -25 	(obj:0)
$_83_z                                            -20 	(obj:0)
$_87_y                                            -25 	(obj:0)
$_87_z                                            -23 	(obj:0)
$_149_y                                           -23 	(obj:0)
$_149_z                                           -25 	(obj:0)
$_43_y                                            -23 	(obj:0)
$_43_z                                            -23 	(obj:0)
$_63_y                                            -24 	(obj:0)
$_63_z                                            -21 	(obj:0)
$_150_y                                           -23 	(obj:0)
$_150_z                                           -24 	(obj:0)
x57                                                 1 	(obj:1)
